NAME : A-n32-k5
COMMENT : (Augerat et al, No of trucks: 5, Optimal value: 784)
TYPE : CVRP
DIMENSION : 5
EDGE_WEIGHT_TYPE : EUC_2D 
CAPACITY : 10
NODE_COORD_SECTION 
 1 0 0
 2 1 0
 3 2 1
 4 1 2
 5 0 2
DEMAND_SECTION 
1 0 
2 1 
3 1 
4 1
5 1 
DEPOT_SECTION 
 1  
 -1  
EOF 
